In4 Sb4
3.2397
     1 -1 0
     0 0 -2
     1 1 0
   In   Sb
    2    2
Direct
     0.000000000         0.000000000         0.499999970
     0.499999970         0.500000000         0.000000000
     0.000000000         0.750000000         0.000000000
     0.499999970         0.250000000         0.499999970

