In1 Sb1
1.0
0.000000 3.257698 3.257698
3.257698 0.000000 3.257698
3.257698 3.257698 0.000000
In Sb
1 1
direct
0.000000 0.000000 0.000000 In
0.750000 0.750000 0.750000 Sb
