In18 Sb18 H4
1.0
4.581628 0.000000 0.000000
0.000000 6.479400 0.000000
0.000000 0.000000 256.571150
In Sb H H
18 18 2 2
cartesian
2.290814 3.239700 147.757493 In
4.581628 0.000000 145.466679 In
2.290814 3.239700 143.175865 In
4.581628 0.000000 140.885051 In
2.290814 3.239700 138.594237 In
4.581628 0.000000 136.303423 In
2.290814 3.239700 134.012610 In
4.581628 0.000000 131.721796 In
2.290814 3.239700 129.430982 In
0.000000 0.000000 127.140168 In
2.290814 3.239700 124.849354 In
4.581628 0.000000 122.558540 In
2.290814 3.239700 120.267727 In
4.581628 0.000000 117.976913 In
2.290814 3.239700 115.686099 In
0.000000 0.000000 113.395285 In
2.290814 3.239700 111.104471 In
4.581628 0.000000 108.813657 In
0.000000 4.859550 147.757493 Sb
2.290814 1.619850 145.466679 Sb
0.000000 4.859550 143.175865 Sb
2.290814 1.619850 140.885051 Sb
0.000000 4.859550 138.594237 Sb
2.290814 1.619850 136.303423 Sb
0.000000 4.859550 134.012610 Sb
2.290814 1.619850 131.721796 Sb
0.000000 4.859550 129.430982 Sb
2.290814 1.619850 127.140168 Sb
0.000000 4.859550 124.849354 Sb
2.290814 1.619850 122.558540 Sb
0.000000 4.859550 120.267727 Sb
2.290814 1.619850 117.976913 Sb
0.000000 4.859550 115.686099 Sb
2.290814 1.619850 113.395285 Sb
4.581628 4.859550 111.104471 Sb
2.290814 1.619850 108.813657 Sb
9.1632 5.7294 107.208291 H
2.290786 2.4897 149.362934 H
6.8724 2.3698 107.326021 H
-1.4e-05 5.6095 149.245204 H
