In7 Sb8 H4
1.0
-2.290814 -3.967806 0.000000
-2.290814 3.967806 0.000000
0.000000 0.000000 -92.732729
In Sb H
7 8 4
direct
0.333333 0.666667 0.626722 In
0.666667 0.333333 0.586382 In
0.000000 0.000000 0.546041 In
0.333333 0.666667 0.505701 In
0.666667 0.333333 0.465360 In
0.000000 0.000000 0.425020 In
0.333333 0.666667 0.384679 In
0.000000 0.000000 0.636807 Sb
0.333333 0.666667 0.596467 Sb
0.666667 0.333333 0.556126 Sb
0.000000 0.000000 0.515786 Sb
0.333333 0.666667 0.475445 Sb
0.666667 0.333333 0.435105 Sb
0.000000 0.000000 0.394764 Sb
0.333333 0.666667 0.354424 Sb
0.969782 0.484892 0.345561 H
0.515108 0.484892 0.345561 H
0.515108 0.030218 0.345561 H
0.000000 0.000000 0.655249 H
