Hg34 Te35 H4
1.0
4.582052 0.000000 0.000000
0.000000 4.582052 0.000000
0.000000 0.000000 195.020000
Hg Te H
34 35 4
direct
0.500000 0.500000 0.774126 Hg
0.000000 0.000000 0.757512 Hg
0.500000 0.500000 0.740898 Hg
0.000000 0.000000 0.724285 Hg
0.500000 0.500000 0.707671 Hg
0.000000 0.000000 0.691057 Hg
0.500000 0.500000 0.674444 Hg
0.000000 0.000000 0.657830 Hg
0.500000 0.500000 0.641216 Hg
0.000000 0.000000 0.624603 Hg
0.500000 0.500000 0.607989 Hg
0.000000 0.000000 0.591375 Hg
0.500000 0.500000 0.574762 Hg
0.000000 0.000000 0.558148 Hg
0.500000 0.500000 0.541534 Hg
0.000000 0.000000 0.524921 Hg
0.500000 0.500000 0.508307 Hg
0.000000 0.000000 0.491693 Hg
0.500000 0.500000 0.475079 Hg
0.000000 0.000000 0.458466 Hg
0.500000 0.500000 0.441852 Hg
0.000000 0.000000 0.425238 Hg
0.500000 0.500000 0.408625 Hg
0.000000 0.000000 0.392011 Hg
0.500000 0.500000 0.375397 Hg
0.000000 0.000000 0.358784 Hg
0.500000 0.500000 0.342170 Hg
0.000000 0.000000 0.325556 Hg
0.500000 0.500000 0.308943 Hg
0.000000 0.000000 0.292329 Hg
0.500000 0.500000 0.275715 Hg
0.000000 0.000000 0.259102 Hg
0.500000 0.500000 0.242488 Hg
0.000000 0.000000 0.225874 Hg
0.000000 0.500000 0.782433 Te
0.500000 0.000000 0.765819 Te
0.000000 0.500000 0.749205 Te
0.500000 0.000000 0.732592 Te
0.000000 0.500000 0.715978 Te
0.500000 0.000000 0.699364 Te
0.000000 0.500000 0.682750 Te
0.500000 0.000000 0.666137 Te
0.000000 0.500000 0.649523 Te
0.500000 0.000000 0.632909 Te
0.000000 0.500000 0.616296 Te
0.500000 0.000000 0.599682 Te
0.000000 0.500000 0.583068 Te
0.500000 0.000000 0.566455 Te
0.000000 0.500000 0.549841 Te
0.500000 0.000000 0.533227 Te
0.000000 0.500000 0.516614 Te
0.500000 0.000000 0.500000 Te
0.000000 0.500000 0.483386 Te
0.500000 0.000000 0.466773 Te
0.000000 0.500000 0.450159 Te
0.500000 0.000000 0.433545 Te
0.000000 0.500000 0.416932 Te
0.500000 0.000000 0.400318 Te
0.000000 0.500000 0.383704 Te
0.500000 0.000000 0.367091 Te
0.000000 0.500000 0.350477 Te
0.500000 0.000000 0.333863 Te
0.000000 0.500000 0.317250 Te
0.500000 0.000000 0.300636 Te
0.000000 0.500000 0.284022 Te
0.500000 0.000000 0.267408 Te
0.000000 0.500000 0.250795 Te
0.500000 0.000000 0.234181 Te
0.000000 0.500000 0.217567 Te
0.728966 0.500000 0.211156 H
0.271034 0.500000 0.211156 H
0.000000 0.228966 0.788844 H
1.000000 0.771034 0.788844 H
