Al36 In12 As12
1.0
4.283936 -7.419994 0.000000
4.283936 7.419994 0.000000
0.000000 0.000000 56.870089
Al In As
36 12 12
direct
0.000000 0.000000 0.648321 Al
0.333333 0.333333 0.648321 Al
0.666667 0.666667 0.648321 Al
0.000000 0.333333 0.648321 Al
0.333333 0.666667 0.648321 Al
0.666667 1.000000 0.648321 Al
0.000000 0.666667 0.648321 Al
0.333333 1.000000 0.648321 Al
0.666667 0.333333 0.648321 Al
0.555556 0.111111 0.607292 Al
0.888889 0.444444 0.607292 Al
0.222222 0.777778 0.607292 Al
0.555556 0.444444 0.607292 Al
0.888889 0.777778 0.607292 Al
0.222222 0.111111 0.607292 Al
0.555556 0.777778 0.607292 Al
0.888889 0.111111 0.607292 Al
0.222222 0.444444 0.607292 Al
0.777778 0.555556 0.566263 Al
0.111111 0.888889 0.566263 Al
0.444444 0.222222 0.566263 Al
0.777778 0.888889 0.566263 Al
0.111111 0.222222 0.566263 Al
0.444444 0.555556 0.566263 Al
0.777778 0.222222 0.566263 Al
0.111111 0.555556 0.566263 Al
0.444444 0.888889 0.566263 Al
0.333333 0.333333 0.525234 Al
0.666667 0.666667 0.525234 Al
0.000000 0.000000 0.525234 Al
0.333333 0.666667 0.525234 Al
0.666667 0.000000 0.525234 Al
1.000000 0.333333 0.525234 Al
0.333333 0.000000 0.525234 Al
0.666667 0.333333 0.525234 Al
1.000000 0.666667 0.525234 Al
0.000000 0.000000 0.351679 In
0.500000 0.500000 0.351679 In
0.000000 0.500000 0.351679 In
0.500000 0.000000 0.351679 In
0.333333 0.666667 0.413184 In
0.833333 0.166667 0.413184 In
0.333333 0.166667 0.413184 In
0.833333 0.666667 0.413184 In
0.666667 0.333333 0.474690 In
0.166667 0.833333 0.474690 In
0.666667 0.833333 0.474690 In
0.166667 0.333333 0.474690 In
0.833333 0.666667 0.367055 As
0.333333 0.166667 0.367055 As
0.833333 0.166667 0.367055 As
0.333333 0.666667 0.367055 As
0.166667 0.333333 0.428560 As
0.666667 0.833333 0.428560 As
0.166667 0.833333 0.428560 As
0.666667 0.333333 0.428560 As
0.500000 0.000000 0.490066 As
0.000000 0.500000 0.490066 As
0.500000 0.500000 0.490066 As
0.000000 0.000000 0.490066 As
