Hg1 Te1
6.48
0.000000 0.500000 0.500000
0.500000 0.000000 0.500000
0.500000 0.500000 0.000000
Hg Te
1 1
direct
0.000000 0.000000 0.000000 Hg
0.750000 0.750000 0.750000 Te
