Hg4 Te4
1.0
6.480000 0.000000 0.000000
0.000000 6.480000 0.000000
0.000000 0.000000 6.480000
Hg Te
4 4
direct
0.000000 0.000000 0.000000 Hg
0.000000 0.500000 0.500000 Hg
0.500000 0.000000 0.500000 Hg
0.500000 0.500000 0.000000 Hg
0.250000 0.250000 0.750000 Te
0.250000 0.750000 0.250000 Te
0.750000 0.250000 0.250000 Te
0.750000 0.750000 0.750000 Te
