In1 As1
1.0
3.029200 3.029200 0.000000
3.029200 0.000000 -3.029200
0.000000 3.029200 -3.029200
As In
1 1
direct
0.250000 0.250000 0.250000 As
0.000000 0.000000 0.000000 In
