Cr12 H12 O21                            
   1.00000000000000     
     4.9530000000000003    0.0000000000000000    0.0000000000000000
    -2.4765000000000001    4.2894240000000003    0.0000000000000000
     0.0000000000000000    0.0000000000000000   89.8036599999999936
   Cr   H    O 
    12    12    21
Selective dynamics
Direct
  0.3333330000000032  0.6666669999999968  0.5704179999999965   F   F   F
  0.6666669999999968  0.3333330000000032  0.5659380000000027   F   F   F
  0.0000000000000000  0.0000000000000000  0.5452190000000030   F   F   F
  0.3333330000000032  0.6666669999999968  0.5407390000000021   F   F   F
  0.6666669999999968  0.3333330000000032  0.5200189999999978   F   F   F
  0.0000000000000000  0.0000000000000000  0.5155400000000014   F   F   F
  0.3333330000000032  0.6666669999999968  0.4948199999999972   F   F   F
  0.6666669999999968  0.3333330000000032  0.4903400000000033   F   F   F
  0.0000000000000000  0.0000000000000000  0.4696209999999965   F   F   F
  0.3333330000000032  0.6666669999999968  0.4651410000000027   F   F   F
  0.6666669999999968  0.3333330000000032  0.4444209999999984   F   F   F
  0.0000000000000000  0.0000000000000000  0.4399409999999975   F   F   F
  0.5370016786614112  0.7799551141345665  0.4284859246716781   T   T   T
  0.2200458858654310  0.7570475645268565  0.4284859246716781   T   T   T
  0.2429524354731435  0.4629983213385887  0.4284859246716781   T   T   T
  0.7491792938980342  0.1466609828793079  0.4194131645442169   T   T   T
  0.8533390171206922  0.6025183110187262  0.4194131645442169   T   T   T
  0.3974816889812737  0.2508207061019658  0.4194131645442169   T   T   T
  0.5841547061019594  0.0641486889812776  0.5909458354557843   T   T   T
  0.7963313213385920  0.9096194354731403  0.5818740753283276   T   T   T
  0.9358513110187223  0.5200060171206961  0.5909458354557843   T   T   T
  0.0903805645268597  0.8867118858654374  0.5818740753283276   T   T   T
  0.1132881141345626  0.2036676786614106  0.5818740753283276   T   T   T
  0.4799939828793039  0.4158452938980406  0.5909458354557843   T   T   T
  0.6666669999999968  0.0295330000000007  0.5807780000000022   F   F   F
  0.9704669999999993  0.6371340000000032  0.5807780000000022   F   F   F
  0.3628659999999968  0.3333330000000032  0.5807780000000022   F   F   F
  0.3333330000000032  0.9704669999999993  0.5555790000000016   F   F   F
  0.0295330000000007  0.3628659999999968  0.5555790000000016   F   F   F
  0.6371340000000032  0.6666669999999968  0.5555790000000016   F   F   F
  0.0000000000000000  0.6961990000000000  0.5303790000000035   F   F   F
  0.3038010000000000  0.3038010000000000  0.5303790000000035   F   F   F
  0.6961990000000000  0.0000000000000000  0.5303790000000035   F   F   F
  0.6666669999999968  0.6371340000000032  0.5051800000000028   F   F   F
  0.3628659999999968  0.0295330000000007  0.5051800000000028   F   F   F
  0.9704669999999993  0.3333330000000032  0.5051800000000028   F   F   F
  0.3333330000000032  0.3628659999999968  0.4799810000000022   F   F   F
  0.6371340000000032  0.9704669999999993  0.4799810000000022   F   F   F
  0.0295330000000007  0.6666669999999968  0.4799810000000022   F   F   F
  0.0000000000000000  0.3038010000000000  0.4547809999999970   F   F   F
  0.6961990000000000  0.6961990000000000  0.4547809999999970   F   F   F
  0.3038010000000000  0.0000000000000000  0.4547809999999970   F   F   F
  0.6666669999999968  0.0295330000000007  0.4295820000000035   F   F   F
  0.9704669999999993  0.6371340000000032  0.4295820000000035   F   F   F
  0.3628659999999968  0.3333330000000032  0.4295820000000035   F   F   F
 
  0.00000000E+00  0.00000000E+00  0.00000000E+00
  0.00000000E+00  0.00000000E+00  0.00000000E+00
  0.00000000E+00  0.00000000E+00  0.00000000E+00
  0.00000000E+00  0.00000000E+00  0.00000000E+00
  0.00000000E+00  0.00000000E+00  0.00000000E+00
  0.00000000E+00  0.00000000E+00  0.00000000E+00
  0.00000000E+00  0.00000000E+00  0.00000000E+00
  0.00000000E+00  0.00000000E+00  0.00000000E+00
  0.00000000E+00  0.00000000E+00  0.00000000E+00
  0.00000000E+00  0.00000000E+00  0.00000000E+00
  0.00000000E+00  0.00000000E+00  0.00000000E+00
  0.00000000E+00  0.00000000E+00  0.00000000E+00
  0.00000000E+00  0.00000000E+00  0.00000000E+00
  0.00000000E+00  0.00000000E+00  0.00000000E+00
  0.00000000E+00  0.00000000E+00  0.00000000E+00
  0.00000000E+00  0.00000000E+00  0.00000000E+00
  0.00000000E+00  0.00000000E+00  0.00000000E+00
  0.00000000E+00  0.00000000E+00  0.00000000E+00
  0.00000000E+00  0.00000000E+00  0.00000000E+00
  0.00000000E+00  0.00000000E+00  0.00000000E+00
  0.00000000E+00  0.00000000E+00  0.00000000E+00
  0.00000000E+00  0.00000000E+00  0.00000000E+00
  0.00000000E+00  0.00000000E+00  0.00000000E+00
  0.00000000E+00  0.00000000E+00  0.00000000E+00
  0.00000000E+00  0.00000000E+00  0.00000000E+00
  0.00000000E+00  0.00000000E+00  0.00000000E+00
  0.00000000E+00  0.00000000E+00  0.00000000E+00
  0.00000000E+00  0.00000000E+00  0.00000000E+00
  0.00000000E+00  0.00000000E+00  0.00000000E+00
  0.00000000E+00  0.00000000E+00  0.00000000E+00
  0.00000000E+00  0.00000000E+00  0.00000000E+00
  0.00000000E+00  0.00000000E+00  0.00000000E+00
  0.00000000E+00  0.00000000E+00  0.00000000E+00
  0.00000000E+00  0.00000000E+00  0.00000000E+00
  0.00000000E+00  0.00000000E+00  0.00000000E+00
  0.00000000E+00  0.00000000E+00  0.00000000E+00
  0.00000000E+00  0.00000000E+00  0.00000000E+00
  0.00000000E+00  0.00000000E+00  0.00000000E+00
  0.00000000E+00  0.00000000E+00  0.00000000E+00
  0.00000000E+00  0.00000000E+00  0.00000000E+00
  0.00000000E+00  0.00000000E+00  0.00000000E+00
  0.00000000E+00  0.00000000E+00  0.00000000E+00
  0.00000000E+00  0.00000000E+00  0.00000000E+00
  0.00000000E+00  0.00000000E+00  0.00000000E+00
  0.00000000E+00  0.00000000E+00  0.00000000E+00
