Cr28 O39
1.0
4.953000 0.000000 0.000000
-2.476500 4.289424 0.000000
0.000000 -0.000000 113.381659
Cr O
28 39
direct
0.333333 0.666667 0.372040 Cr
0.666667 0.333333 0.368491 Cr
0.333333 0.666667 0.408410 Cr
0.000000 0.000000 0.388451 Cr
0.666667 0.333333 0.391999 Cr
0.333333 0.666667 0.491795 Cr
0.000000 0.000000 0.448328 Cr
0.666667 0.333333 0.428369 Cr
0.333333 0.666667 0.431917 Cr
0.000000 0.000000 0.411958 Cr
0.666667 0.333333 0.488246 Cr
0.333333 0.666667 0.468287 Cr
0.000000 0.000000 0.471835 Cr
0.666667 0.333333 0.451876 Cr
0.333333 0.666667 0.528165 Cr
0.000000 0.000000 0.508205 Cr
0.666667 0.333333 0.511754 Cr
0.333333 0.666667 0.611549 Cr
0.000000 0.000000 0.568083 Cr
0.666667 0.333333 0.548124 Cr
0.333333 0.666667 0.551672 Cr
0.000000 0.000000 0.531713 Cr
0.666667 0.333333 0.608001 Cr
0.333333 0.666667 0.588042 Cr
0.000000 0.000000 0.591590 Cr
0.666667 0.333333 0.571631 Cr
0.000000 0.000000 0.627960 Cr
0.666667 0.333333 0.631508 Cr
0.666667 0.029533 0.380245 O
0.970467 0.637134 0.380245 O
0.362866 0.333333 0.380245 O
0.000000 0.303801 0.400204 O
0.696199 0.696199 0.400204 O
0.303801 0.000000 0.400204 O
0.333333 0.362866 0.420164 O
0.637134 0.970467 0.420164 O
0.029533 0.666667 0.420164 O
0.666667 0.637134 0.440123 O
0.362866 0.029533 0.440123 O
0.970467 0.333333 0.440123 O
1.000000 0.696199 0.460082 O
0.303801 0.303801 0.460082 O
0.696199 0.000000 0.460082 O
0.333333 0.970467 0.480041 O
0.029533 0.362866 0.480041 O
0.637134 0.666667 0.480041 O
0.666667 0.029533 0.500000 O
0.970467 0.637134 0.500000 O
0.362866 0.333333 0.500000 O
0.000000 0.303801 0.519959 O
0.696199 0.696199 0.519959 O
0.303801 0.000000 0.519959 O
0.333333 0.362866 0.539918 O
0.637134 0.970467 0.539918 O
0.029533 0.666667 0.539918 O
0.666667 0.637134 0.559877 O
0.362866 0.029533 0.559877 O
0.970467 0.333333 0.559877 O
1.000000 0.696199 0.579837 O
0.303801 0.303801 0.579837 O
0.696199 0.000000 0.579837 O
0.333333 0.970467 0.599796 O
0.029533 0.362866 0.599796 O
0.637134 0.666667 0.599796 O
0.666667 0.029533 0.619755 O
0.970467 0.637134 0.619755 O
0.362866 0.333333 0.619755 O
