Cr16 O21
1.0
4.953000 0.000000 0.000000
-2.476500 4.289424 0.000000
0.000000 -0.000000 99.803660
Cr O
16 21
direct
0.333333 0.666667 0.422655 Cr
0.666667 0.333333 0.418624 Cr
0.333333 0.666667 0.463973 Cr
0.000000 0.000000 0.441298 Cr
0.666667 0.333333 0.445329 Cr
0.333333 0.666667 0.558702 Cr
0.000000 0.000000 0.509322 Cr
0.666667 0.333333 0.486647 Cr
0.333333 0.666667 0.490678 Cr
0.000000 0.000000 0.468004 Cr
0.666667 0.333333 0.554671 Cr
0.333333 0.666667 0.531996 Cr
0.000000 0.000000 0.536027 Cr
0.666667 0.333333 0.513353 Cr
0.000000 0.000000 0.577345 Cr
0.666667 0.333333 0.581376 Cr
0.666667 0.029533 0.431976 O
0.970467 0.637134 0.431976 O
0.362866 0.333333 0.431976 O
0.000000 0.303801 0.454651 O
0.696199 0.696199 0.454651 O
0.303801 0.000000 0.454651 O
0.333333 0.362866 0.477326 O
0.637134 0.970467 0.477326 O
0.029533 0.666667 0.477326 O
0.666667 0.637134 0.500000 O
0.362866 0.029533 0.500000 O
0.970467 0.333333 0.500000 O
1.000000 0.696199 0.522675 O
0.303801 0.303801 0.522675 O
0.696199 0.000000 0.522675 O
0.333333 0.970467 0.545349 O
0.029533 0.362866 0.545349 O
0.637134 0.666667 0.545349 O
0.666667 0.029533 0.568024 O
0.970467 0.637134 0.568024 O
0.362866 0.333333 0.568024 O
