In14 Sb14 H4
1.0
4.581628 0.000000 0.000000
0.000000 6.479400 0.000000
0.000000 0.000000 63.484895
In Sb H
14 14 4
direct
0.500000 0.500000 0.505181 In
0.000000 1.000000 0.469097 In
0.500000 0.500000 0.433013 In
0.000000 1.000000 0.396928 In
0.500000 0.500000 0.360844 In
0.000000 1.000000 0.324760 In
0.500000 0.500000 0.288675 In
0.000000 1.000000 0.252591 In
0.500000 0.500000 0.216506 In
0.000000 1.000000 0.180422 In
0.500000 0.500000 0.144338 In
0.000000 1.000000 0.108253 In
0.500000 0.500000 0.072169 In
0.000000 1.000000 0.036084 In
0.000000 0.750000 0.505181 Sb
0.500000 0.250000 0.469097 Sb
0.000000 0.750000 0.433013 Sb
0.500000 0.250000 0.396928 Sb
0.000000 0.750000 0.360844 Sb
0.500000 0.250000 0.324760 Sb
0.000000 0.750000 0.288675 Sb
0.500000 0.250000 0.252591 Sb
0.000000 0.750000 0.216506 Sb
0.500000 0.250000 0.180422 Sb
0.000000 0.750000 0.144338 Sb
0.500000 0.250000 0.108253 Sb
0.000000 0.750000 0.072169 Sb
0.500000 0.250000 0.036084 Sb
0.500000 0.386331 0.016407 H
0.000000 0.861263 0.016059 H
0.500000 0.361263 0.525206 H
1.000000 0.886331 0.524859 H
