In16 Fe30 Sb16
1.0
-0.000000 6.479400 -0.000000
-0.000000 0.000000 6.479400
63.337750 -0.000000 -0.000000
In Fe Sb
16 30 16
direct
0.000000 0.000000 0.000000 In
0.500000 0.500000 0.000000 In
0.000000 0.500000 0.948850 In
0.500000 0.000000 0.948850 In
0.000000 0.000000 0.897701 In
0.500000 0.500000 0.897701 In
0.000000 0.500000 0.846551 In
0.500000 0.000000 0.846551 In
0.000000 0.000000 0.795402 In
0.500000 0.500000 0.795402 In
0.000000 0.500000 0.744252 In
0.500000 0.000000 0.744252 In
0.000000 0.000000 0.693102 In
0.500000 0.500000 0.693102 In
0.000000 0.500000 0.641953 In
0.500000 0.000000 0.641953 In
0.000000 0.000000 0.586380 Fe
0.600000 0.200000 0.586380 Fe
0.200000 0.400000 0.586380 Fe
0.800000 0.600000 0.586380 Fe
0.400000 0.800000 0.586380 Fe
0.900000 0.300000 0.563834 Fe
0.500000 0.500000 0.563834 Fe
0.100000 0.700000 0.563834 Fe
0.700000 0.900000 0.563834 Fe
0.300000 0.100000 0.563834 Fe
0.000000 0.000000 0.541289 Fe
0.600000 0.200000 0.541289 Fe
0.200000 0.400000 0.541289 Fe
0.800000 0.600000 0.541289 Fe
0.400000 0.800000 0.541289 Fe
0.900000 0.300000 0.518743 Fe
0.500000 0.500000 0.518743 Fe
0.100000 0.700000 0.518743 Fe
0.700000 0.900000 0.518743 Fe
0.300000 0.100000 0.518743 Fe
0.000000 0.000000 0.496197 Fe
0.600000 0.200000 0.496197 Fe
0.200000 0.400000 0.496197 Fe
0.800000 0.600000 0.496197 Fe
0.400000 0.800000 0.496197 Fe
0.900000 0.300000 0.473651 Fe
0.500000 0.500000 0.473651 Fe
0.100000 0.700000 0.473651 Fe
0.700000 0.900000 0.473651 Fe
0.300000 0.100000 0.473651 Fe
0.750000 0.250000 0.974425 Sb
0.250000 0.750000 0.974425 Sb
0.750000 0.750000 0.923276 Sb
0.250000 0.250000 0.923276 Sb
0.750000 0.250000 0.872126 Sb
0.250000 0.750000 0.872126 Sb
0.750000 0.750000 0.820976 Sb
0.250000 0.250000 0.820976 Sb
0.750000 0.250000 0.769827 Sb
0.250000 0.750000 0.769827 Sb
0.750000 0.750000 0.718677 Sb
0.250000 0.250000 0.718677 Sb
0.750000 0.250000 0.667528 Sb
0.250000 0.750000 0.667528 Sb
0.750000 0.750000 0.616378 Sb
0.250000 0.250000 0.616378 Sb
